# 79631
param n := 30;
param s := 1;
set E :=  (0,6) (0,13) (1,23) (1,29) (2,3) (2,16) (2,17) (2,18) (4,7) (5,20) (5,24) (6,14) (6,28) (7,21) (8,11) (9,12) (10,12) (10,15) (11,15) (11,24) (14,26) (15,25) (15,26) (16,21) (17,25) (18,23) (19,28) (22,28) (25,27);
